qe/outputs/qe/cbrdelay_l0_discretize/T=5,eliminate=[I_0,I_1,I_2,I_3,I_4,L_2,L_3,L_4,lhs=B].smt2
; benchmark generated from python API
(set-info :status unknown)
(declare-fun S_4 () Real)
(declare-fun S_3 () Real)
(declare-fun C () Real)
(declare-fun S_1 () Real)
(declare-fun A_0 () Real)
(declare-fun L_0 () Real)
(declare-fun S_2 () Real)
(declare-fun B () Real)
(declare-fun S_0 () Real)
(declare-fun L0 () Real)
(declare-fun A_1 () Real)
(declare-fun L_1 () Real)
(declare-fun A_2 () Real)
(declare-fun A_3 () Real)
(declare-fun A_4 () Real)
(assert
 (let (($x6297 (>= (+ (* (- 1.0) C) (* (- 1.0) B) (* (- 1.0) S_2) S_4) 0.0)))
 (let (($x37 (>= L0 0.0)))
 (let (($x327 (>= C 5.0)))
 (let (($x6867 (<= (+ (* (- 1.0) L_0) (* 2.0 C) A_1 (* (- 1.0) S_4)) 0.0)))
 (let (($x8823 (or (<= (+ (* 2.0 C) S_0 (* (- 1.0) S_3)) 0.0) (<= (+ (* (- 1.0) L_0) C A_1 (* (- 1.0) S_3)) 0.0))))
 (let (($x6947 (<= 0.0 (+ L_0 (* (- 2.0) C) (* (- 1.0) B) (* (- 1.0) A_0) S_4))))
 (let (($x6934 (<= 0.0 (+ (* (- 2.0) C) (* (- 1.0) B) S_4 (* (- 1.0) S_1)))))
 (let (($x6957 (<= 0.0 (+ (* (- 3.0) C) (* (- 1.0) B) (* (- 1.0) S_0) S_4))))
 (let (($x6811 (<= 0.0 (+ L_0 (* (- 1.0) C) (* (- 1.0) A_1) (* (- 1.0) B) S_4))))
 (let (($x9039 (or (<= (+ (* (- 1.0) L_0) A_1 (* (- 1.0) S_2)) 0.0) (<= (+ C S_0 (* (- 1.0) S_2)) 0.0))))
 (let (($x54 (= L_1 L_0)))
 (let ((?x236 (* (- 1.0) C)))
 (let ((?x483 (* (- 1.0) L_1)))
 (let ((?x543 (* (- 1.0) B)))
 (let ((?x232 (+ ?x543 ?x483 A_1 ?x236)))
 (let (($x114 (>= S_2 S_1)))
 (let (($x125 (>= A_4 A_3)))
 (let (($x36 (>= L_0 L0)))
 (let (($x111 (>= S_1 S_0)))
 (let (($x117 (>= S_3 S_2)))
 (let (($x120 (>= S_4 S_3)))
 (let (($x122 (>= A_1 A_0)))
 (let (($x124 (>= A_3 A_2)))
 (and (<= (+ A_1 ?x483) S_4) $x124 $x122 $x120 $x117 $x111 $x36 $x125 $x114 (or $x54 (not (<= L_1 L_0))) (or $x54 (<= S_1 (+ A_1 ?x483 ?x543))) (or $x54 (<= S_2 (+ A_1 ?x483 ?x543 C))) (or $x54 (<= S_0 ?x232)) (or $x54 (<= S_3 (+ A_1 ?x483 ?x543 (* 2.0 C)))) (or $x54 (<= S_4 (+ A_1 ?x483 ?x543 (* 3.0 C)))) (>= S_2 (+ A_1 ?x483 ?x543)) (>= S_1 ?x232) (<= ?x232 (+ A_0 (* (- 1.0) L_0))) (>= S_0 (+ ?x543 ?x483 A_1 (* (- 2.0) C))) (>= S_3 (+ A_1 ?x483 ?x543 C)) (>= S_4 (+ A_1 ?x483 ?x543 (* 2.0 C))) (or $x54 (not (<= (+ A_1 ?x483 C) S_4))) (<= (+ L_0 ?x236 (* (- 1.0) A_1) S_2) 0.0) $x9039 (<= (+ L_0 (* (- 1.0) A_1) S_1) 0.0) (<= (+ L_0 (* (- 2.0) C) (* (- 1.0) A_1) S_3) 0.0) (<= (+ L_0 (* (- 3.0) C) (* (- 1.0) A_1) S_4) 0.0) (not $x6811) (<= (+ (* (- 5.0) C) (* (- 1.0) S_0) S_4) 0.0) (<= (+ (* (- 4.0) C) S_4 (* (- 1.0) S_1)) 0.0) (<= (+ L_0 (* (- 4.0) C) (* (- 1.0) A_0) S_4) 0.0) (<= (+ (* (- 3.0) C) (* (- 1.0) S_0) S_2) 0.0) (<= (+ L_0 (* (- 3.0) C) S_3 (* (- 1.0) A_0)) 0.0) (<= (+ (* (- 4.0) C) (* (- 1.0) S_0) S_3) 0.0) (<= (+ (* (- 3.0) C) S_3 (* (- 1.0) S_1)) 0.0) (not $x6957) (not $x6934) (not $x6947) (not (<= (+ A_2 ?x483) S_4)) $x8823 (or (<= (+ (* 3.0 C) S_0 (* (- 1.0) S_4)) 0.0) $x6867) (not (<= 0.0 (+ C ?x543))) (<= (+ (* (- 2.0) C) (* (- 1.0) S_0) S_1) 0.0) $x327 $x37 (<= (+ L_0 (* (- 2.0) C) S_2 (* (- 1.0) A_0)) 0.0) (<= (+ (* (- 2.0) C) S_2 (* (- 1.0) S_1)) 0.0) (<= (+ C S_2 (* (- 1.0) S_4)) 0.0) (<= (+ L_0 S_0 (* (- 1.0) A_0)) 0.0) (<= (+ (* (- 2.0) C) S_3 (* (- 1.0) S_2)) 0.0) (<= (+ C (* (- 1.0) S_3) S_1) 0.0) (<= (+ (* (- 3.0) C) (* (- 1.0) S_2) S_4) 0.0) (not (>= (+ ?x543 (* (- 1.0) S_3) S_4) 0.0)) (not $x6297) (<= (+ (* 2.0 C) (* (- 1.0) S_4) S_1) 0.0) (<= (+ L_0 ?x236 (* (- 1.0) A_0) S_1) 0.0) (<= (+ (* (- 2.0) C) (* (- 1.0) S_3) S_4) 0.0))))))))))))))))))))))))))
(check-sat)
